NAME weathering_srl_ilp
* Max problem is converted into Min one
ROWS
 N  OBJ
 L  constraint1_3380
 L  constraint1_3500
 L  constraint1_240
 L  constraint1_1940
 L  constraint1_1941
 L  constraint1_10
 L  constraint1_4270
 L  constraint1_4290
 L  constraint1_1970
 L  constraint1_5620
 L  constraint1_5621
 L  constraint1_5622
 L  constraint1_5623
 L  constraint2_3380
 L  constraint2_3381
 L  constraint2_3382
 L  constraint2_3383
 L  constraint2_3500
 L  constraint2_3501
 L  constraint2_3502
 L  constraint2_3503
 L  constraint2_240
 L  constraint2_241
 L  constraint2_242
 L  constraint2_243
 L  constraint2_1940
 L  constraint2_1941
 L  constraint2_1942
 L  constraint2_1943
 L  constraint2_10
 L  constraint2_11
 L  constraint2_12
 L  constraint2_13
 L  constraint2_4270
 L  constraint2_4271
 L  constraint2_4272
 L  constraint2_4273
 L  constraint2_4290
 L  constraint2_4291
 L  constraint2_4292
 L  constraint2_4293
 L  constraint2_1970
 L  constraint2_1971
 L  constraint2_1972
 L  constraint2_1973
 L  constraint2_5620
 L  constraint2_5621
 L  constraint2_5622
 L  constraint2_5623
COLUMNS
    MARKER    'MARKER'                 'INTORG'
    Z_338_0_0  OBJ       -6.6650840747783380e-03
    Z_338_0_0  constraint1_3380  1
    Z_338_0_0  constraint2_3380  1
    Z_338_0_1  OBJ       -2.3333311673826131e-03
    Z_338_0_1  constraint1_3380  1
    Z_338_0_1  constraint2_3381  1
    Z_338_0_2  OBJ       -3.5321566567593721e-02
    Z_338_0_2  constraint1_3380  1
    Z_338_0_2  constraint2_3382  1
    Z_338_0_3  OBJ       -8.2703495436722396e-01
    Z_338_0_3  constraint1_3380  1
    Z_338_0_3  constraint2_3383  1
    Z_350_0_0  OBJ       -2.2644521033433063e-03
    Z_350_0_0  constraint1_3500  1
    Z_350_0_0  constraint2_3500  1
    Z_350_0_1  OBJ       -1.5765028408156790e-02
    Z_350_0_1  constraint1_3500  1
    Z_350_0_1  constraint2_3501  1
    Z_350_0_2  OBJ       -2.9665371121832851e-01
    Z_350_0_2  constraint1_3500  1
    Z_350_0_2  constraint2_3502  1
    Z_350_0_3  OBJ       -7.7600076032383558e-01
    Z_350_0_3  constraint1_3500  1
    Z_350_0_3  constraint2_3503  1
    Z_24_0_0  OBJ       -7.8244398759443664e-03
    Z_24_0_0  constraint1_240  1
    Z_24_0_0  constraint2_240  1
    Z_24_0_1  OBJ       -7.7263343188720912e-02
    Z_24_0_1  constraint1_240  1
    Z_24_0_1  constraint2_241  1
    Z_24_0_2  OBJ       -1.1976216393556194e-02
    Z_24_0_2  constraint1_240  1
    Z_24_0_2  constraint2_242  1
    Z_24_0_3  OBJ       -3.3984541670491292e-01
    Z_24_0_3  constraint1_240  1
    Z_24_0_3  constraint2_243  1
    Z_194_0_0  OBJ       -8.1234895777074256e-01
    Z_194_0_0  constraint1_1940  1
    Z_194_0_0  constraint2_1940  1
    Z_194_0_1  OBJ       -3.9187420389994745e-02
    Z_194_0_1  constraint1_1940  1
    Z_194_0_1  constraint2_1941  1
    Z_194_0_2  OBJ       -3.8094194071246035e-02
    Z_194_0_2  constraint1_1940  1
    Z_194_0_2  constraint2_1942  1
    Z_194_0_3  OBJ       -1.0081875724242492e-01
    Z_194_0_3  constraint1_1940  1
    Z_194_0_3  constraint2_1943  1
    Z_194_1_0  OBJ       -9.9170287066930440e-03
    Z_194_1_0  constraint1_1941  1
    Z_194_1_0  constraint2_1940  1
    Z_194_1_1  OBJ       -9.1382413657531969e-03
    Z_194_1_1  constraint1_1941  1
    Z_194_1_1  constraint2_1941  1
    Z_194_1_2  OBJ       -7.9071197842039775e-01
    Z_194_1_2  constraint1_1941  1
    Z_194_1_2  constraint2_1942  1
    Z_194_1_3  OBJ       -3.4621099393011757e-02
    Z_194_1_3  constraint1_1941  1
    Z_194_1_3  constraint2_1943  1
    Z_1_0_0   OBJ       -6.8908994087858227e-03
    Z_1_0_0   constraint1_10  1
    Z_1_0_0   constraint2_10  1
    Z_1_0_1   OBJ       -4.0329248666077344e-02
    Z_1_0_1   constraint1_10  1
    Z_1_0_1   constraint2_11  1
    Z_1_0_2   OBJ       -6.6642329594354649e-02
    Z_1_0_2   constraint1_10  1
    Z_1_0_2   constraint2_12  1
    Z_1_0_3   OBJ       -3.0834899126334355e-02
    Z_1_0_3   constraint1_10  1
    Z_1_0_3   constraint2_13  1
    Z_427_0_0  OBJ       -4.8694179761772927e-03
    Z_427_0_0  constraint1_4270  1
    Z_427_0_0  constraint2_4270  1
    Z_427_0_1  OBJ       -3.9105132005474944e-03
    Z_427_0_1  constraint1_4270  1
    Z_427_0_1  constraint2_4271  1
    Z_427_0_2  OBJ       -3.9571393217756140e-01
    Z_427_0_2  constraint1_4270  1
    Z_427_0_2  constraint2_4272  1
    Z_427_0_3  OBJ       -1.2838293942073978e-01
    Z_427_0_3  constraint1_4270  1
    Z_427_0_3  constraint2_4273  1
    Z_429_0_0  OBJ       -8.5503089353102621e-02
    Z_429_0_0  constraint1_4290  1
    Z_429_0_0  constraint2_4290  1
    Z_429_0_1  OBJ       -2.4062064997784996e-01
    Z_429_0_1  constraint1_4290  1
    Z_429_0_1  constraint2_4291  1
    Z_429_0_2  OBJ       -1.1643893617028601e-01
    Z_429_0_2  constraint1_4290  1
    Z_429_0_2  constraint2_4292  1
    Z_429_0_3  OBJ       -1.1759227696758136e-02
    Z_429_0_3  constraint1_4290  1
    Z_429_0_3  constraint2_4293  1
    Z_197_0_0  OBJ       -1.3279797016475182e-02
    Z_197_0_0  constraint1_1970  1
    Z_197_0_0  constraint2_1970  1
    Z_197_0_1  OBJ       -1.2838969664444810e-02
    Z_197_0_1  constraint1_1970  1
    Z_197_0_1  constraint2_1971  1
    Z_197_0_2  OBJ       -5.6858820193235814e-02
    Z_197_0_2  constraint1_1970  1
    Z_197_0_2  constraint2_1972  1
    Z_197_0_3  OBJ       -7.8294658554101781e-01
    Z_197_0_3  constraint1_1970  1
    Z_197_0_3  constraint2_1973  1
    Z_562_0_0  OBJ       -3.9096661645048880e-03
    Z_562_0_0  constraint1_5620  1
    Z_562_0_0  constraint2_5620  1
    Z_562_0_1  OBJ       -5.4770926681979252e-03
    Z_562_0_1  constraint1_5620  1
    Z_562_0_1  constraint2_5621  1
    Z_562_0_2  OBJ       -3.6799775079201590e-02
    Z_562_0_2  constraint1_5620  1
    Z_562_0_2  constraint2_5622  1
    Z_562_0_3  OBJ       -4.6524918561002167e-02
    Z_562_0_3  constraint1_5620  1
    Z_562_0_3  constraint2_5623  1
    Z_562_1_0  OBJ       -1.1791082148203846e-02
    Z_562_1_0  constraint1_5621  1
    Z_562_1_0  constraint2_5620  1
    Z_562_1_1  OBJ       -5.1360488448968017e-03
    Z_562_1_1  constraint1_5621  1
    Z_562_1_1  constraint2_5621  1
    Z_562_1_2  OBJ       -2.6160539087516445e-02
    Z_562_1_2  constraint1_5621  1
    Z_562_1_2  constraint2_5622  1
    Z_562_1_3  OBJ       -8.5772289762018269e-02
    Z_562_1_3  constraint1_5621  1
    Z_562_1_3  constraint2_5623  1
    Z_562_2_0  OBJ       -7.8244398759443664e-03
    Z_562_2_0  constraint1_5622  1
    Z_562_2_0  constraint2_5620  1
    Z_562_2_1  OBJ       -7.7263343188720912e-02
    Z_562_2_1  constraint1_5622  1
    Z_562_2_1  constraint2_5621  1
    Z_562_2_2  OBJ       -1.3989093561774347e-02
    Z_562_2_2  constraint1_5622  1
    Z_562_2_2  constraint2_5622  1
    Z_562_2_3  OBJ       -3.6448627347002827e-01
    Z_562_2_3  constraint1_5622  1
    Z_562_2_3  constraint2_5623  1
    Z_562_3_0  OBJ       -7.8244398759443664e-03
    Z_562_3_0  constraint1_5623  1
    Z_562_3_0  constraint2_5620  1
    Z_562_3_1  OBJ       -7.7263343188720912e-02
    Z_562_3_1  constraint1_5623  1
    Z_562_3_1  constraint2_5621  1
    Z_562_3_2  OBJ       -1.3989093561774347e-02
    Z_562_3_2  constraint1_5623  1
    Z_562_3_2  constraint2_5622  1
    Z_562_3_3  OBJ       -3.6448627347002827e-01
    Z_562_3_3  constraint1_5623  1
    Z_562_3_3  constraint2_5623  1
    MARKER    'MARKER'                 'INTEND'
RHS
    RHS1      constraint1_3380  1
    RHS1      constraint1_3500  1
    RHS1      constraint1_240  1
    RHS1      constraint1_1940  1
    RHS1      constraint1_1941  1
    RHS1      constraint1_10  1
    RHS1      constraint1_4270  1
    RHS1      constraint1_4290  1
    RHS1      constraint1_1970  1
    RHS1      constraint1_5620  1
    RHS1      constraint1_5621  1
    RHS1      constraint1_5622  1
    RHS1      constraint1_5623  1
    RHS1      constraint2_3380  1
    RHS1      constraint2_3381  1
    RHS1      constraint2_3382  1
    RHS1      constraint2_3383  1
    RHS1      constraint2_3500  1
    RHS1      constraint2_3501  1
    RHS1      constraint2_3502  1
    RHS1      constraint2_3503  1
    RHS1      constraint2_240  1
    RHS1      constraint2_241  1
    RHS1      constraint2_242  1
    RHS1      constraint2_243  1
    RHS1      constraint2_1940  1
    RHS1      constraint2_1941  1
    RHS1      constraint2_1942  1
    RHS1      constraint2_1943  1
    RHS1      constraint2_10  1
    RHS1      constraint2_11  1
    RHS1      constraint2_12  1
    RHS1      constraint2_13  1
    RHS1      constraint2_4270  1
    RHS1      constraint2_4271  1
    RHS1      constraint2_4272  1
    RHS1      constraint2_4273  1
    RHS1      constraint2_4290  1
    RHS1      constraint2_4291  1
    RHS1      constraint2_4292  1
    RHS1      constraint2_4293  1
    RHS1      constraint2_1970  1
    RHS1      constraint2_1971  1
    RHS1      constraint2_1972  1
    RHS1      constraint2_1973  1
    RHS1      constraint2_5620  1
    RHS1      constraint2_5621  1
    RHS1      constraint2_5622  1
    RHS1      constraint2_5623  1
BOUNDS
 UP BND1      Z_338_0_0  1
 UP BND1      Z_338_0_1  1
 UP BND1      Z_338_0_2  1
 UP BND1      Z_338_0_3  1
 UP BND1      Z_350_0_0  1
 UP BND1      Z_350_0_1  1
 UP BND1      Z_350_0_2  1
 UP BND1      Z_350_0_3  1
 UP BND1      Z_24_0_0  1
 UP BND1      Z_24_0_1  1
 UP BND1      Z_24_0_2  1
 UP BND1      Z_24_0_3  1
 UP BND1      Z_194_0_0  1
 UP BND1      Z_194_0_1  1
 UP BND1      Z_194_0_2  1
 UP BND1      Z_194_0_3  1
 UP BND1      Z_194_1_0  1
 UP BND1      Z_194_1_1  1
 UP BND1      Z_194_1_2  1
 UP BND1      Z_194_1_3  1
 UP BND1      Z_1_0_0   1
 UP BND1      Z_1_0_1   1
 UP BND1      Z_1_0_2   1
 UP BND1      Z_1_0_3   1
 UP BND1      Z_427_0_0  1
 UP BND1      Z_427_0_1  1
 UP BND1      Z_427_0_2  1
 UP BND1      Z_427_0_3  1
 UP BND1      Z_429_0_0  1
 UP BND1      Z_429_0_1  1
 UP BND1      Z_429_0_2  1
 UP BND1      Z_429_0_3  1
 UP BND1      Z_197_0_0  1
 UP BND1      Z_197_0_1  1
 UP BND1      Z_197_0_2  1
 UP BND1      Z_197_0_3  1
 UP BND1      Z_562_0_0  1
 UP BND1      Z_562_0_1  1
 UP BND1      Z_562_0_2  1
 UP BND1      Z_562_0_3  1
 UP BND1      Z_562_1_0  1
 UP BND1      Z_562_1_1  1
 UP BND1      Z_562_1_2  1
 UP BND1      Z_562_1_3  1
 UP BND1      Z_562_2_0  1
 UP BND1      Z_562_2_1  1
 UP BND1      Z_562_2_2  1
 UP BND1      Z_562_2_3  1
 UP BND1      Z_562_3_0  1
 UP BND1      Z_562_3_1  1
 UP BND1      Z_562_3_2  1
 UP BND1      Z_562_3_3  1
QUADOBJ
    Z_338_0_0  Z_350_0_0  -2.1227029893997180e-02
    Z_338_0_0  Z_24_0_0  -2.3500667133919302e-02
    Z_338_0_0  Z_427_0_0  -2.8552297017646194e-02
    Z_338_0_0  Z_197_0_0  -3.2756757634067442e-02
    Z_338_0_0  Z_562_2_0  -4.3819804472128569e-02
    Z_338_0_0  Z_562_3_0  -4.3819804472128569e-02
    Z_338_0_1  Z_350_0_1  -2.1227029893997180e-02
    Z_338_0_1  Z_24_0_1  -2.3500667133919302e-02
    Z_338_0_1  Z_427_0_1  -2.8552297017646194e-02
    Z_338_0_1  Z_197_0_1  -3.2756757634067442e-02
    Z_338_0_1  Z_562_2_1  -4.3819804472128569e-02
    Z_338_0_1  Z_562_3_1  -4.3819804472128569e-02
    Z_338_0_2  Z_350_0_2  -2.1227029893997180e-02
    Z_338_0_2  Z_24_0_2  -2.3500667133919302e-02
    Z_338_0_2  Z_427_0_2  -2.8552297017646194e-02
    Z_338_0_2  Z_197_0_2  -3.2756757634067442e-02
    Z_338_0_2  Z_562_2_2  -4.3819804472128569e-02
    Z_338_0_2  Z_562_3_2  -4.3819804472128569e-02
    Z_338_0_3  Z_350_0_3  -2.1227029893997180e-02
    Z_338_0_3  Z_24_0_3  -2.3500667133919302e-02
    Z_338_0_3  Z_427_0_3  -2.8552297017646194e-02
    Z_338_0_3  Z_197_0_3  -3.2756757634067442e-02
    Z_338_0_3  Z_562_2_3  -4.3819804472128569e-02
    Z_338_0_3  Z_562_3_3  -4.3819804472128569e-02
    Z_350_0_0  Z_24_0_0  -1.1871901862977652e-01
    Z_350_0_0  Z_194_0_0  -8.8888888888888865e-02
    Z_350_0_0  Z_194_1_0  -1.2760922542919901e-04
    Z_350_0_0  Z_1_0_0   -2.5778244751152101e-05
    Z_350_0_0  Z_427_0_0  -2.8929489153769642e-02
    Z_350_0_0  Z_197_0_0  -1.3616347965304756e-01
    Z_350_0_0  Z_562_0_0  -1.2499999999999997e-02
    Z_350_0_0  Z_562_2_0  -1.2346694543837463e-02
    Z_350_0_0  Z_562_3_0  -1.2346694543837463e-02
    Z_350_0_1  Z_24_0_1  -1.1871901862977652e-01
    Z_350_0_1  Z_194_0_1  -8.8888888888888865e-02
    Z_350_0_1  Z_194_1_1  -1.2760922542919901e-04
    Z_350_0_1  Z_1_0_1   -2.5778244751152101e-05
    Z_350_0_1  Z_427_0_1  -2.8929489153769642e-02
    Z_350_0_1  Z_197_0_1  -1.3616347965304756e-01
    Z_350_0_1  Z_562_0_1  -1.2499999999999997e-02
    Z_350_0_1  Z_562_2_1  -1.2346694543837463e-02
    Z_350_0_1  Z_562_3_1  -1.2346694543837463e-02
    Z_350_0_2  Z_24_0_2  -1.1871901862977652e-01
    Z_350_0_2  Z_194_0_2  -8.8888888888888865e-02
    Z_350_0_2  Z_194_1_2  -1.2760922542919901e-04
    Z_350_0_2  Z_1_0_2   -2.5778244751152101e-05
    Z_350_0_2  Z_427_0_2  -2.8929489153769642e-02
    Z_350_0_2  Z_197_0_2  -1.3616347965304756e-01
    Z_350_0_2  Z_562_0_2  -1.2499999999999997e-02
    Z_350_0_2  Z_562_2_2  -1.2346694543837463e-02
    Z_350_0_2  Z_562_3_2  -1.2346694543837463e-02
    Z_350_0_3  Z_24_0_3  -1.1871901862977652e-01
    Z_350_0_3  Z_194_0_3  -8.8888888888888865e-02
    Z_350_0_3  Z_194_1_3  -1.2760922542919901e-04
    Z_350_0_3  Z_1_0_3   -2.5778244751152101e-05
    Z_350_0_3  Z_427_0_3  -2.8929489153769642e-02
    Z_350_0_3  Z_197_0_3  -1.3616347965304756e-01
    Z_350_0_3  Z_562_0_3  -1.2499999999999997e-02
    Z_350_0_3  Z_562_2_3  -1.2346694543837463e-02
    Z_350_0_3  Z_562_3_3  -1.2346694543837463e-02
    Z_24_0_0  Z_194_0_0  -1.9999999999999996e-01
    Z_24_0_0  Z_427_0_0  -3.0280861004721674e-02
    Z_24_0_0  Z_197_0_0  -1.3614507461771794e-01
    Z_24_0_0  Z_562_0_0  -2.7434842249657055e-04
    Z_24_0_0  Z_562_2_0  -3.3209369409802618e-02
    Z_24_0_0  Z_562_3_0  -3.3209369409802618e-02
    Z_24_0_1  Z_194_0_1  -1.9999999999999996e-01
    Z_24_0_1  Z_427_0_1  -3.0280861004721674e-02
    Z_24_0_1  Z_197_0_1  -1.3614507461771794e-01
    Z_24_0_1  Z_562_0_1  -2.7434842249657055e-04
    Z_24_0_1  Z_562_2_1  -3.3209369409802618e-02
    Z_24_0_1  Z_562_3_1  -3.3209369409802618e-02
    Z_24_0_2  Z_194_0_2  -1.9999999999999996e-01
    Z_24_0_2  Z_427_0_2  -3.0280861004721674e-02
    Z_24_0_2  Z_197_0_2  -1.3614507461771794e-01
    Z_24_0_2  Z_562_0_2  -2.7434842249657055e-04
    Z_24_0_2  Z_562_2_2  -3.3209369409802618e-02
    Z_24_0_2  Z_562_3_2  -3.3209369409802618e-02
    Z_24_0_3  Z_194_0_3  -1.9999999999999996e-01
    Z_24_0_3  Z_427_0_3  -3.0280861004721674e-02
    Z_24_0_3  Z_197_0_3  -1.3614507461771794e-01
    Z_24_0_3  Z_562_0_3  -2.7434842249657055e-04
    Z_24_0_3  Z_562_2_3  -3.3209369409802618e-02
    Z_24_0_3  Z_562_3_3  -3.3209369409802618e-02
    Z_194_0_0  Z_427_0_0  -1.9999999999999996e-01
    Z_194_0_0  Z_197_0_0  -1.3007954883895810e-05
    Z_194_0_0  Z_562_0_0  -2.7434842249657055e-04
    Z_194_0_1  Z_427_0_1  -1.9999999999999996e-01
    Z_194_0_1  Z_197_0_1  -1.3007954883895810e-05
    Z_194_0_1  Z_562_0_1  -2.7434842249657055e-04
    Z_194_0_2  Z_427_0_2  -1.9999999999999996e-01
    Z_194_0_2  Z_197_0_2  -1.3007954883895810e-05
    Z_194_0_2  Z_562_0_2  -2.7434842249657055e-04
    Z_194_0_3  Z_427_0_3  -1.9999999999999996e-01
    Z_194_0_3  Z_197_0_3  -1.3007954883895810e-05
    Z_194_0_3  Z_562_0_3  -2.7434842249657055e-04
    Z_194_1_0  Z_427_0_0  -1.1105393379538016e-01
    Z_194_1_0  Z_197_0_0  -8.0905876066229773e-03
    Z_194_1_0  Z_562_0_0  -1.0204081632653058e-03
    Z_194_1_0  Z_562_2_0  -3.9756471405331163e-05
    Z_194_1_0  Z_562_3_0  -3.9756471405331163e-05
    Z_194_1_1  Z_427_0_1  -1.1105393379538016e-01
    Z_194_1_1  Z_197_0_1  -8.0905876066229773e-03
    Z_194_1_1  Z_562_0_1  -1.0204081632653058e-03
    Z_194_1_1  Z_562_2_1  -3.9756471405331163e-05
    Z_194_1_1  Z_562_3_1  -3.9756471405331163e-05
    Z_194_1_2  Z_427_0_2  -1.1105393379538016e-01
    Z_194_1_2  Z_197_0_2  -8.0905876066229773e-03
    Z_194_1_2  Z_562_0_2  -1.0204081632653058e-03
    Z_194_1_2  Z_562_2_2  -3.9756471405331163e-05
    Z_194_1_2  Z_562_3_2  -3.9756471405331163e-05
    Z_194_1_3  Z_427_0_3  -1.1105393379538016e-01
    Z_194_1_3  Z_197_0_3  -8.0905876066229773e-03
    Z_194_1_3  Z_562_0_3  -1.0204081632653058e-03
    Z_194_1_3  Z_562_2_3  -3.9756471405331163e-05
    Z_194_1_3  Z_562_3_3  -3.9756471405331163e-05
    Z_1_0_0   Z_427_0_0  -2.0225328734525590e-03
    Z_1_0_0   Z_562_0_0  -3.9849588496830942e-04
    Z_1_0_1   Z_427_0_1  -2.0225328734525590e-03
    Z_1_0_1   Z_562_0_1  -3.9849588496830942e-04
    Z_1_0_2   Z_427_0_2  -2.0225328734525590e-03
    Z_1_0_2   Z_562_0_2  -3.9849588496830942e-04
    Z_1_0_3   Z_427_0_3  -2.0225328734525590e-03
    Z_1_0_3   Z_562_0_3  -3.9849588496830942e-04
    Z_427_0_0  Z_197_0_0  -5.0082560508040733e-02
    Z_427_0_0  Z_562_0_0  -2.7434842249657055e-04
    Z_427_0_0  Z_562_2_0  -2.7657578978854014e-02
    Z_427_0_0  Z_562_3_0  -2.7657578978854014e-02
    Z_427_0_1  Z_197_0_1  -5.0082560508040733e-02
    Z_427_0_1  Z_562_0_1  -2.7434842249657055e-04
    Z_427_0_1  Z_562_2_1  -2.7657578978854014e-02
    Z_427_0_1  Z_562_3_1  -2.7657578978854014e-02
    Z_427_0_2  Z_197_0_2  -5.0082560508040733e-02
    Z_427_0_2  Z_562_0_2  -2.7434842249657055e-04
    Z_427_0_2  Z_562_2_2  -2.7657578978854014e-02
    Z_427_0_2  Z_562_3_2  -2.7657578978854014e-02
    Z_427_0_3  Z_197_0_3  -5.0082560508040733e-02
    Z_427_0_3  Z_562_0_3  -2.7434842249657055e-04
    Z_427_0_3  Z_562_2_3  -2.7657578978854014e-02
    Z_427_0_3  Z_562_3_3  -2.7657578978854014e-02
    Z_197_0_0  Z_562_1_0  -2.3706997775900119e-03
    Z_197_0_0  Z_562_2_0  -6.8820564520710781e-02
    Z_197_0_0  Z_562_3_0  -6.8820564520710781e-02
    Z_197_0_1  Z_562_1_1  -2.3706997775900119e-03
    Z_197_0_1  Z_562_2_1  -6.8820564520710781e-02
    Z_197_0_1  Z_562_3_1  -6.8820564520710781e-02
    Z_197_0_2  Z_562_1_2  -2.3706997775900119e-03
    Z_197_0_2  Z_562_2_2  -6.8820564520710781e-02
    Z_197_0_2  Z_562_3_2  -6.8820564520710781e-02
    Z_197_0_3  Z_562_1_3  -2.3706997775900119e-03
    Z_197_0_3  Z_562_2_3  -6.8820564520710781e-02
    Z_197_0_3  Z_562_3_3  -6.8820564520710781e-02
ENDATA
